TCS_Benchmarks/redos_fix/regexlib1_output_distinct_1796_1795_3_0.txt
([qtu&;o]|['])*
(([qtu&;o]|['])*)(([_])*)(([0-9A-Za-z])+)
([0-9A-Za-z])+